p cnf 12 22
12 -11 9 0
12 -11 4 0
12 -9 1 0
-12 8 6 0
12 -7 -4 0
-12 -7 3 0
-12 6 -1 0
-12 -6 1 0
11 -9 -1 0
11 -3 2 0
-10 9 8 0
-10 -8 -4 0
-10 7 2 0
-10 3 -2 0
9 7 -3 0
-9 -5 -4 0
9 -5 -1 0
8 4 1 0
7 6 2 0
7 -5 -2 0
-7 5 -1 0
-7 4 -3 0
